(21,21)SWNT26
35.00000000
  1.00000000  0.00000000  0.00000000
  0.00000000  1.00000000  0.00000000
  0.00000000  0.00000000  0.07027178
 84
Direct
    0.87920   0.87920   0.00000
    0.80983   0.91961   0.00000
    0.76994   0.92662   0.00000
    0.68968   0.91784   0.00000
    0.65153   0.90413   0.00000
    0.58226   0.86227   0.00000
    0.55196   0.83533   0.00000
    0.49459   0.77795   0.00000
    0.46590   0.74926   0.00000
    0.40852   0.69189   0.00000
    0.37983   0.66320   0.00000
    0.32246   0.60582   0.00000
    0.29377   0.57713   0.00000
    0.23639   0.51976   0.00000
    0.20770   0.49107   0.00000
    0.15075   0.43329   0.00000
    0.12566   0.40143   0.00000
    0.08834   0.32964   0.00000
    0.07745   0.29060   0.00000
    0.07582   0.20993   0.00000
    0.08717   0.17107   0.00000
    0.13605   0.10745   0.00000
    0.17107   0.08717   0.00000
    0.25033   0.07292   0.00000
    0.29060   0.07745   0.00000
    0.36675   0.10466   0.00000
    0.40143   0.12566   0.00000
    0.46238   0.17901   0.00000
    0.49107   0.20770   0.00000
    0.54845   0.26508   0.00000
    0.57713   0.29377   0.00000
    0.63451   0.35115   0.00000
    0.66320   0.37983   0.00000
    0.72058   0.43721   0.00000
    0.74926   0.46590   0.00000
    0.80664   0.52327   0.00000
    0.83533   0.55196   0.00000
    0.88539   0.61558   0.00000
    0.90413   0.65153   0.00000
    0.92567   0.72944   0.00000
    0.92662   0.76994   0.00000
    0.90380   0.84709   0.00000
    0.91283   0.82893   0.50000
    0.86395   0.89255   0.50000
    0.82893   0.91283   0.50000
    0.74967   0.92708   0.50000
    0.70940   0.92255   0.50000
    0.63325   0.89534   0.50000
    0.59857   0.87434   0.50000
    0.53762   0.82099   0.50000
    0.50893   0.79230   0.50000
    0.45155   0.73492   0.50000
    0.42287   0.70623   0.50000
    0.36549   0.64885   0.50000
    0.33680   0.62017   0.50000
    0.27942   0.56279   0.50000
    0.25074   0.53410   0.50000
    0.19336   0.47673   0.50000
    0.16467   0.44804   0.50000
    0.11461   0.38442   0.50000
    0.09587   0.34847   0.50000
    0.07433   0.27056   0.50000
    0.07338   0.23006   0.50000
    0.09620   0.15291   0.50000
    0.12080   0.12080   0.50000
    0.19017   0.08039   0.50000
    0.23006   0.07338   0.50000
    0.31032   0.08216   0.50000
    0.34847   0.09587   0.50000
    0.41774   0.13773   0.50000
    0.44804   0.16467   0.50000
    0.50541   0.22205   0.50000
    0.53410   0.25074   0.50000
    0.59148   0.30811   0.50000
    0.62017   0.33680   0.50000
    0.67754   0.39418   0.50000
    0.70623   0.42287   0.50000
    0.76361   0.48024   0.50000
    0.79230   0.50893   0.50000
    0.84925   0.56671   0.50000
    0.87434   0.59857   0.50000
    0.91166   0.67036   0.50000
    0.92255   0.70940   0.50000
    0.92418   0.79007   0.50000


