(21,21)SWNT63
35.00000000
  1.00000000  0.00000000  0.00000000
  0.00000000  1.00000000  0.00000000
  0.00000000  0.00000000  0.210815
 252
Direct
  0.89621    0.89621    0.00000
  0.89621    0.89621    0.33333
  0.89621    0.89621    0.66667
  0.82333    0.92763    0.00000
  0.82333    0.92763    0.33333
  0.82333    0.92763    0.66667
  0.78301    0.92444    0.00000
  0.78301    0.92444    0.33333
  0.78301    0.92444    0.66667
  0.71014    0.89023    0.00000
  0.71014    0.89023    0.33333
  0.71014    0.89023    0.66667
  0.68041    0.86272    0.00000
  0.68041    0.86272    0.33333
  0.68041    0.86272    0.66667
  0.63974    0.79310    0.00000
  0.63974    0.79310    0.33333
  0.63974    0.79310    0.66667
  0.62357    0.75589    0.00000
  0.62357    0.75589    0.33333
  0.62357    0.75589    0.66667
  0.58556    0.68424    0.00000
  0.58556    0.68424    0.33333
  0.58556    0.68424    0.66667
  0.56382    0.64999    0.00000
  0.56382    0.64999    0.33333
  0.56382    0.64999    0.66667
  0.51519    0.58508    0.00000
  0.51519    0.58508    0.33333
  0.51519    0.58508    0.66667
  0.48842    0.55460    0.00000
  0.48842    0.55460    0.33333
  0.48842    0.55460    0.66667
  0.43033    0.49800    0.00000
  0.43033    0.49800    0.33333
  0.43033    0.49800    0.66667
  0.39917    0.47202    0.00000
  0.39917    0.47202    0.33333
  0.39917    0.47202    0.66667
  0.33302    0.42509    0.00000
  0.33302    0.42509    0.33333
  0.33302    0.42509    0.66667
  0.29822    0.40425    0.00000
  0.29822    0.40425    0.33333
  0.29822    0.40425    0.66667
  0.22561    0.36811    0.00000
  0.22561    0.36811    0.33333
  0.22561    0.36811    0.66667
  0.18811    0.35263    0.00000
  0.18811    0.35263    0.33333
  0.18811    0.35263    0.66667
  0.12280    0.30540    0.00000
  0.12280    0.30540    0.33333
  0.12280    0.30540    0.66667
  0.09835    0.27311    0.00000
  0.09835    0.27311    0.33333
  0.09835    0.27311    0.66667
  0.07258    0.19694    0.00000
  0.07258    0.19694    0.33333
  0.07258    0.19694    0.66667
  0.07522    0.15661    0.00000
  0.07522    0.15661    0.33333
  0.07522    0.15661    0.66667
  0.11945    0.09095    0.00000
  0.11945    0.09095    0.33333
  0.11945    0.09095    0.66667
  0.15661    0.07522    0.00000
  0.15661    0.07522    0.33333
  0.15661    0.07522    0.66667
  0.23651    0.08102    0.00000
  0.23651    0.08102    0.33333
  0.23651    0.08102    0.66667
  0.27311    0.09835    0.00000
  0.27311    0.09835    0.33333
  0.27311    0.09835    0.66667
  0.33230    0.15308    0.00000
  0.33230    0.15308    0.33333
  0.33230    0.15308    0.66667
  0.35263    0.18811    0.00000
  0.35263    0.18811    0.33333
  0.35263    0.18811    0.66667
  0.38524    0.26238    0.00000
  0.38524    0.26238    0.33333
  0.38524    0.26238    0.66667
  0.40425    0.29822    0.00000
  0.40425    0.29822    0.33333
  0.40425    0.29822    0.66667
  0.44770    0.36670    0.00000
  0.44770    0.36670    0.33333
  0.44770    0.36670    0.66667
  0.47202    0.39917    0.00000
  0.47202    0.39917    0.33333
  0.47202    0.39917    0.66667
  0.52555    0.46011    0.00000
  0.52555    0.46011    0.33333
  0.52555    0.46011    0.66667
  0.55460    0.48842    0.00000
  0.55460    0.48842    0.33333
  0.55460    0.48842    0.66667
  0.61690    0.54035    0.00000
  0.61690    0.54035    0.33333
  0.61690    0.54035    0.66667
  0.64999    0.56382    0.00000
  0.64999    0.56382    0.33333
  0.64999    0.56382    0.66667
  0.71958    0.60549    0.00000
  0.71958    0.60549    0.33333
  0.71958    0.60549    0.66667
  0.75589    0.62357    0.00000
  0.75589    0.62357    0.33333
  0.75589    0.62357    0.66667
  0.82993    0.65662    0.00000
  0.82993    0.65662    0.33333
  0.82993    0.65662    0.66667
  0.86272    0.68041    0.00000
  0.86272    0.68041    0.33333
  0.86272    0.68041    0.66667
  0.91130    0.74472    0.00000
  0.91130    0.74472    0.33333
  0.91130    0.74472    0.66667
  0.92444    0.78301    0.00000
  0.92444    0.78301    0.33333
  0.92444    0.78301    0.66667
  0.91862    0.86269    0.00000
  0.91862    0.86269    0.33333
  0.91862    0.86269    0.66667
  0.92478    0.84339    0.16667
  0.92478    0.84339    0.50000
  0.92478    0.84339    0.83333
  0.88055    0.90905    0.16667
  0.88055    0.90905    0.50000
  0.88055    0.90905    0.83333
  0.84339    0.92478    0.16667
  0.84339    0.92478    0.50000
  0.84339    0.92478    0.83333
  0.76349    0.91898    0.16667
  0.76349    0.91898    0.50000
  0.76349    0.91898    0.83333
  0.72689    0.90165    0.16667
  0.72689    0.90165    0.50000
  0.72689    0.90165    0.83333
  0.66770    0.84692    0.16667
  0.66770    0.84692    0.50000
  0.66770    0.84692    0.83333
  0.64737    0.81189    0.16667
  0.64737    0.81189    0.50000
  0.64737    0.81189    0.83333
  0.61476    0.73762    0.16667
  0.61476    0.73762    0.50000
  0.61476    0.73762    0.83333
  0.59575    0.70178    0.16667
  0.59575    0.70178    0.50000
  0.59575    0.70178    0.83333
  0.55230    0.63330    0.16667
  0.55230    0.63330    0.50000
  0.55230    0.63330    0.83333
  0.52798    0.60083    0.16667
  0.52798    0.60083    0.50000
  0.52798    0.60083    0.83333
  0.47445    0.53989    0.16667
  0.47445    0.53989    0.50000
  0.47445    0.53989    0.83333
  0.44540    0.51158    0.16667
  0.44540    0.51158    0.50000
  0.44540    0.51158    0.83333
  0.38310    0.45965    0.16667
  0.38310    0.45965    0.50000
  0.38310    0.45965    0.83333
  0.35001    0.43618    0.16667
  0.35001    0.43618    0.50000
  0.35001    0.43618    0.83333
  0.28042    0.39451    0.16667
  0.28042    0.39451    0.50000
  0.28042    0.39451    0.83333
  0.24411    0.37643    0.16667
  0.24411    0.37643    0.50000
  0.24411    0.37643    0.83333
  0.17007    0.34338    0.16667
  0.17007    0.34338    0.50000
  0.17007    0.34338    0.83333
  0.13728    0.31959    0.16667
  0.13728    0.31959    0.50000
  0.13728    0.31959    0.83333
  0.08870    0.25528    0.16667
  0.08870    0.25528    0.50000
  0.08870    0.25528    0.83333
  0.07556    0.21699    0.16667
  0.07556    0.21699    0.50000
  0.07556    0.21699    0.83333
  0.08138    0.13731    0.16667
  0.08138    0.13731    0.50000
  0.08138    0.13731    0.83333
  0.10379    0.10379    0.16667
  0.10379    0.10379    0.50000
  0.10379    0.10379    0.83333
  0.17667    0.07237    0.16667
  0.17667    0.07237    0.50000
  0.17667    0.07237    0.83333
  0.21699    0.07556    0.16667
  0.21699    0.07556    0.50000
  0.21699    0.07556    0.83333
  0.28986    0.10977    0.16667
  0.28986    0.10977    0.50000
  0.28986    0.10977    0.83333
  0.31959    0.13728    0.16667
  0.31959    0.13728    0.50000
  0.31959    0.13728    0.83333
  0.36026    0.20690    0.16667
  0.36026    0.20690    0.50000
  0.36026    0.20690    0.83333
  0.37643    0.24411    0.16667
  0.37643    0.24411    0.50000
  0.37643    0.24411    0.83333
  0.41444    0.31576    0.16667
  0.41444    0.31576    0.50000
  0.41444    0.31576    0.83333
  0.43618    0.35001    0.16667
  0.43618    0.35001    0.50000
  0.43618    0.35001    0.83333
  0.48481    0.41492    0.16667
  0.48481    0.41492    0.50000
  0.48481    0.41492    0.83333
  0.51158    0.44540    0.16667
  0.51158    0.44540    0.50000
  0.51158    0.44540    0.83333
  0.56967    0.50200    0.16667
  0.56967    0.50200    0.50000
  0.56967    0.50200    0.83333
  0.60083    0.52798    0.16667
  0.60083    0.52798    0.50000
  0.60083    0.52798    0.83333
  0.66698    0.57491    0.16667
  0.66698    0.57491    0.50000
  0.66698    0.57491    0.83333
  0.70178    0.59575    0.16667
  0.70178    0.59575    0.50000
  0.70178    0.59575    0.83333
  0.77439    0.63189    0.16667
  0.77439    0.63189    0.50000
  0.77439    0.63189    0.83333
  0.81189    0.64737    0.16667
  0.81189    0.64737    0.50000
  0.81189    0.64737    0.83333
  0.87720    0.69460    0.16667
  0.87720    0.69460    0.50000
  0.87720    0.69460    0.83333
  0.90165    0.72689    0.16667
  0.90165    0.72689    0.50000
  0.90165    0.72689    0.83333
  0.92742    0.80306    0.16667
  0.92742    0.80306    0.50000
  0.92742    0.80306    0.83333
